6475855356980721500501,2,1,2,09,8,1,2,015,3,1,2,08,5,1,2,014,13,1,2,04,6,1,2,07,9,1,2,08,10,1,2,05,5,1,2,09,11,1,2,014,1,1,2,010,2,1,2,010,12,1,2,011,13,1,2,013,13,1,2,02,12,1,2,05,3,1,2,05,10,1,2,08,13,1,2,011,4,1,2,015,8,1,2,03,7,1,2,03,12,1,2,05,8,1,2,07,8,1,2,08,2,1,2,015,11,1,2,01,13,1,2,012,2,1,2,06,1,1,2,01,5,1,2,05,4,1,2,05,14,1,2,013,6,1,2,05,14,1,2,09,14,1,2,01,9,1,2,012,14,1,2,06,10,1,2,014,7,1,2,05,9,1,2,03,6,1,2,01,8,1,2,04,14,1,2,03,4,1,2,07,12,1,2,06,8,1,2,06,8,1,2,09,1,1,2,014,4,1,2,0